Re S
1.0
  6.407259000000   0.000000000000   0.000000000000
 -3.153562941366   5.700599876681   0.000000000000
  0.000000000000   0.000000000000  45.142953000000
Re S
  8  16
Selective dynamics
Direct
  0.001966950000   0.001868390000   0.424549660000  T T T
  0.879807450000   0.377707820000   0.427008810000  T T T
  0.452563010000   0.403618660000   0.426091440000  T T T
  0.429211380000   0.975957530000   0.425467040000  T T T
  0.998033050000   0.998131610000   0.572991180000  T T T
  0.120192550000   0.622292180000   0.575450320000  T T T
  0.547436990000   0.596381340000   0.574532950000  T T T
  0.570788620000   0.024042470000   0.573908550000  T T T
  0.295585120000   0.130561770000   0.387001450000  T T T
  0.586189710000   0.249014760000   0.464557030000  T T T
  0.794858870000   0.623580380000   0.395777200000  T T T
  0.086915940000   0.755996140000   0.455781290000  T T T
  0.123793350000   0.293172420000   0.460575660000  T T T
  0.757981460000   0.086404140000   0.390982800000  T T T
  0.624137110000   0.785899660000   0.451996300000  T T T
  0.257637660000   0.593676850000   0.399562180000  T T T
  0.704414880000   0.869438230000   0.535442960000  T T T
  0.413810290000   0.750985240000   0.612998550000  T T T
  0.205141130000   0.376419620000   0.544218710000  T T T
  0.913084060000   0.244003860000   0.604222800000  T T T
  0.876206650000   0.706827580000   0.609017170000  T T T
  0.242018540000   0.913595860000   0.539424320000  T T T
  0.375862890000   0.214100340000   0.600437810000  T T T
  0.742362340000   0.406323150000   0.548003690000  T T T
