&CONTROL
    calculation = 'scf'
    prefix = 'hBN_AA'
    pseudo_dir = './pseudo/'
    outdir = './tmp/'
/

&SYSTEM
    ibrav = 0
    nat = 4
    ntyp = 2
    ecutwfc = 80.0
    ecutrho = 320.0
    occupations = 'smearing'
    smearing = 'gaussian'
    degauss = 0.01
    vdw_corr = 'DFT-D3'
/

&ELECTRONS
    conv_thr = 1.0d-8
/

ATOMIC_SPECIES
    B  10.81  B.pbe-n-kjpaw_psl.1.0.0.UPF
    N  14.01  N.pbe-n-kjpaw_psl.1.0.0.UPF

CELL_PARAMETERS (angstrom)
    2.504000    0.000000    0.000000
   -1.252000   2.168528    0.000000
    0.000000    0.000000   25.000000

ATOMIC_POSITIONS (crystal)
    B    0.000000    0.000000   0.433400
    N    0.333333    0.666667   0.433400
    B    0.000000    0.000000   0.566600
    N    0.333333    0.666667   0.566600

K_POINTS (automatic)
    12 12 1 0 0 0
