h-BN monolayer
1.0
    2.504000    0.000000    0.000000
   -1.252000    2.168528    0.000000
    0.000000    0.000000   25.000000
B    N
1    1
Direct
    0.000000    0.000000   0.500000
    0.333333    0.666667   0.500000
